 200 28 
 48 71 61 13 23 66 45 63 12 20 61 67 
 66 26 89 11 61 89 63 8 86 23 55 84 
 10 34 13 61 
 24 
 1 3 4 5 6 7 8 9 10 11 12 13 
 15 16 17 18 19 20 21 22 24 26 27 28 
 8 
 5 6 7 11 21 26 27 28 
 8 
 6 12 13 20 21 24 25 28 
 13 
 1 2 4 6 9 11 12 14 16 22 24 25 
 27 
 22 
 1 2 3 5 6 7 8 9 10 11 13 14 
 15 16 17 18 19 20 22 24 26 27 
 20 
 1 3 4 5 7 8 9 11 12 14 15 16 
 18 19 20 21 22 23 26 28 
 9 
 2 3 4 5 10 13 15 21 27 
 18 
 1 2 4 5 7 8 9 10 11 12 15 16 
 17 20 24 25 26 27 
 8 
 4 9 11 12 13 14 18 20 
 16 
 2 8 9 10 11 12 14 16 20 22 23 24 
 25 26 27 28 
 17 
 2 3 4 6 7 8 10 11 15 20 21 22 
 23 24 25 26 27 
 28 
 1 2 3 4 5 6 7 8 9 10 11 12 
 13 14 15 16 17 18 19 20 21 22 23 24 
 25 26 27 28 
 8 
 2 5 10 16 21 23 24 27 
 8 
 8 9 11 12 14 16 23 28 
 9 
 4 6 11 12 13 14 17 19 20 
 23 
 1 2 3 4 5 6 7 10 11 12 13 14 
 15 16 17 18 21 22 23 24 25 27 28 
 27 
 1 2 3 4 5 7 8 9 10 11 12 13 
 14 15 16 17 18 19 20 21 22 23 24 25 
 26 27 28 
 8 
 1 12 13 15 21 23 25 28 
 12 
 1 2 6 7 10 11 12 15 18 19 22 28 
 9 
 1 2 5 9 15 16 19 23 25 
 21 
 1 2 3 4 5 6 7 8 9 10 11 13 
 14 15 16 17 19 20 22 26 27 
 22 
 1 2 4 5 6 7 8 9 10 11 13 17 
 18 19 20 22 23 24 25 26 27 28 
 14 
 1 3 4 9 11 12 14 17 19 20 21 24 
 26 28 
 16 
 2 4 5 7 8 10 11 12 13 14 17 18 
 19 21 23 25 
 2 
 2 8 
 20 
 2 3 4 5 6 8 11 13 14 15 16 17 
 18 21 23 24 25 26 27 28 
 26 
 1 2 3 4 5 7 8 9 11 12 13 14 
 15 16 17 18 19 20 21 22 23 24 25 26 
 27 28 
 28 
 1 2 3 4 5 6 7 8 9 10 11 12 
 13 14 15 16 17 18 19 20 21 22 23 24 
 25 26 27 28 
 16 
 1 2 3 6 7 9 11 12 17 18 21 23 
 25 26 27 28 
 4 
 6 8 11 28 
 3 
 8 9 16 
 22 
 1 3 4 5 6 7 8 9 11 12 13 14 
 15 17 19 20 21 23 24 25 26 27 
 8 
 1 11 12 18 20 22 27 28 
 15 
 2 3 5 10 11 12 13 14 15 16 18 22 
 23 24 25 
 22 
 2 3 4 5 7 8 9 10 11 13 14 15 
 17 18 20 21 22 23 24 26 27 28 
 18 
 2 3 4 5 7 9 10 11 14 15 17 18 
 19 20 22 23 25 26 
 19 
 1 2 4 5 6 7 8 9 11 12 14 16 
 17 18 22 25 26 27 28 
 13 
 1 2 4 5 8 11 12 13 14 15 16 22 
 23 
 25 
 1 2 3 4 5 6 8 9 10 11 12 13 
 14 15 16 17 18 19 21 22 23 24 25 26 
 27 
 17 
 2 6 7 9 10 11 12 13 14 15 16 17 
 18 20 22 23 25 
 4 
 2 9 13 21 
 22 
 1 2 3 5 6 7 8 10 12 13 14 15 
 16 18 19 20 21 23 24 26 27 28 
 18 
 2 3 6 7 9 10 11 13 14 17 18 19 
 21 22 23 24 26 28 
 3 
 20 22 28 
 15 
 3 4 5 8 9 13 14 16 18 19 20 22 
 24 26 28 
 4 
 10 21 22 26 
 25 
 1 2 3 4 5 6 7 8 9 10 11 12 
 13 14 15 16 17 18 19 22 23 24 26 27 
 28 
 6 
 6 11 15 16 19 28 
 22 
 1 2 3 4 6 7 8 9 10 11 12 13 
 17 18 19 20 22 23 24 25 27 28 
 22 
 4 6 7 8 9 10 11 12 13 14 17 18 
 19 20 21 22 23 24 25 26 27 28 
 19 
 2 4 6 8 9 10 11 12 13 14 16 17 
 18 20 21 22 24 25 27 
 10 
 1 5 6 7 8 11 23 25 26 28 
 27 
 1 2 3 4 5 6 7 8 9 10 11 12 
 13 14 15 16 17 18 19 20 21 22 23 25 
 26 27 28 
 21 
 1 2 3 4 5 6 7 8 9 12 13 14 
 15 16 17 18 21 22 23 25 27 
 22 
 1 2 3 4 5 6 7 10 11 12 13 15 
 16 17 20 21 22 24 25 26 27 28 
 27 
 1 2 3 4 5 6 7 8 9 10 11 12 
 13 14 15 16 17 19 20 21 22 23 24 25 
 26 27 28 
 21 
 1 2 3 4 5 6 8 10 11 12 13 14 
 15 16 20 21 23 25 26 27 28 
 21 
 1 4 6 7 8 9 11 12 13 14 15 16 
 19 21 22 23 24 25 26 27 28 
 23 
 2 3 4 5 6 7 8 9 11 13 14 15 
 16 17 18 19 20 21 22 24 25 26 27 
 14 
 1 4 5 8 9 10 11 13 14 15 17 18 
 19 24 
 28 
 1 2 3 4 5 6 7 8 9 10 11 12 
 13 14 15 16 17 18 19 20 21 22 23 24 
 25 26 27 28 
 9 
 2 4 5 11 13 16 17 19 24 
 21 
 3 4 5 6 8 9 11 12 13 14 15 16 
 17 18 19 20 21 22 23 25 26 
 14 
 1 2 3 6 8 9 11 12 14 15 17 19 
 20 26 
 10 
 1 4 5 8 9 19 20 23 25 26 
 5 
 8 10 12 24 25 
 6 
 3 6 11 20 23 28 
 3 
 4 16 23 
 7 
 4 8 9 16 24 27 28 
 25 
 1 2 3 5 6 7 8 9 10 11 12 13 
 14 15 16 17 19 20 21 22 24 25 26 27 
 28 
 13 
 4 7 8 9 12 14 16 20 21 23 25 26 
 28 
 16 
 4 5 6 7 8 11 14 15 16 17 18 19 
 20 24 25 28 
 21 
 1 2 3 4 5 6 7 8 9 10 11 12 
 15 17 18 20 21 22 25 26 27 
 9 
 6 9 12 14 16 18 19 21 27 
 4 
 8 17 24 26 
 14 
 3 7 11 12 13 14 15 16 20 22 23 24 
 25 28 
 6 
 3 10 11 17 20 26 
 2 
 6 18 
 25 
 1 2 4 5 6 7 8 9 10 11 12 13 
 14 15 17 18 19 20 21 22 24 25 26 27 
 28 
 7 
 4 6 8 14 20 22 23 
 18 
 1 2 3 7 8 9 10 11 12 17 18 19 
 21 23 24 26 27 28 
 28 
 1 2 3 4 5 6 7 8 9 10 11 12 
 13 14 15 16 17 18 19 20 21 22 23 24 
 25 26 27 28 
 25 
 1 2 4 5 6 7 8 9 10 11 12 13 
 14 16 17 18 19 20 21 23 24 25 26 27 
 28 
 20 
 1 2 3 5 7 9 10 13 15 16 17 18 
 19 20 23 24 25 26 27 28 
 8 
 4 6 10 11 17 18 24 25 
 26 
 1 2 3 4 5 6 7 8 9 10 11 12 
 13 14 15 16 17 18 19 20 21 22 24 26 
 27 28 
 24 
 1 2 3 5 6 7 8 9 10 11 12 13 
 14 15 17 18 19 21 22 23 24 26 27 28 
 2 
 4 24 
 14 
 1 2 9 10 11 12 13 14 16 19 21 22 
 26 27 
 18 
 1 2 3 4 5 8 10 11 12 13 15 16 
 19 20 22 23 25 27 
 25 
 1 4 5 6 7 8 9 11 12 13 14 15 
 16 17 18 19 20 21 22 23 24 25 26 27 
 28 
 11 
 1 3 4 6 7 13 14 19 20 21 25 
 10 
 4 5 13 14 17 20 22 23 24 28 
 13 
 1 2 4 10 11 13 16 20 22 23 25 27 
 28 
 12 
 3 4 5 6 8 11 13 14 20 22 25 27 
 12 
 1 6 7 8 12 13 14 17 18 19 24 26 
 4 
 1 6 11 13 
 4 
 14 15 17 21 
 25 
 1 2 3 4 5 6 7 9 11 12 13 14 
 15 16 17 18 19 20 21 22 23 25 26 27 
 28 
 26 
 1 2 3 4 5 6 7 8 9 10 11 12 
 13 14 15 16 17 18 20 21 22 23 24 25 
 26 28 
 17 
 1 2 3 4 5 7 8 9 10 11 16 17 
 18 19 20 25 28 
 25 
 1 2 3 4 5 6 7 8 9 10 11 12 
 13 14 15 17 18 19 20 21 22 23 24 25 
 27 
 28 
 1 2 3 4 5 6 7 8 9 10 11 12 
 13 14 15 16 17 18 19 20 21 22 23 24 
 25 26 27 28 
 15 
 3 4 6 7 9 11 12 16 17 19 20 23 
 24 27 28 
 5 
 2 4 13 15 21 
 13 
 1 4 5 11 12 14 16 17 18 21 25 26 
 28 
 2 
 12 25 
 26 
 1 2 3 4 5 6 7 8 9 10 11 12 
 13 14 15 16 17 18 19 21 22 23 25 26 
 27 28 
 28 
 1 2 3 4 5 6 7 8 9 10 11 12 
 13 14 15 16 17 18 19 20 21 22 23 24 
 25 26 27 28 
 25 
 1 2 3 4 5 6 7 8 9 10 11 13 
 15 16 18 19 20 21 22 23 24 25 26 27 
 28 
 18 
 3 4 5 6 7 8 9 13 15 16 17 18 
 19 20 24 25 26 28 
 6 
 5 8 12 13 15 20 
 16 
 3 5 6 7 8 10 11 12 15 18 20 23 
 24 25 27 28 
 17 
 1 3 4 6 10 11 12 13 14 17 18 19 
 20 22 23 27 28 
 24 
 1 3 4 5 6 7 9 10 11 12 13 14 
 15 16 17 18 19 21 22 24 25 26 27 28 
 15 
 1 2 3 7 8 10 11 12 13 17 18 22 
 23 24 28 
 10 
 1 7 9 11 12 13 14 17 21 24 
 16 
 2 3 4 5 6 8 9 14 16 17 18 21 
 22 25 27 28 
 6 
 4 9 11 16 24 27 
 21 
 1 3 4 5 8 9 10 12 14 15 16 17 
 18 19 21 22 23 24 26 27 28 
 26 
 1 2 3 4 5 6 7 8 9 10 11 12 
 13 14 15 16 17 18 19 20 23 24 25 26 
 27 28 
 19 
 1 2 3 4 6 8 9 10 11 12 16 17 
 18 21 24 25 26 27 28 
 4 
 3 8 16 24 
 7 
 7 15 17 19 21 25 27 
 7 
 11 12 14 15 19 21 22 
 25 
 1 2 3 4 5 6 7 8 9 10 11 13 
 14 16 18 19 20 21 22 23 24 25 26 27 
 28 
 9 
 4 5 8 10 11 14 23 25 27 
 6 
 5 9 11 16 17 23 
 14 
 2 4 6 9 10 11 13 16 18 21 24 25 
 27 28 
 15 
 4 5 6 7 9 10 12 14 16 17 20 21 
 23 24 28 
 9 
 2 4 6 8 9 12 23 25 26 
 19 
 1 2 3 4 5 8 9 11 12 14 15 16 
 17 19 22 24 25 26 27 
 28 
 1 2 3 4 5 6 7 8 9 10 11 12 
 13 14 15 16 17 18 19 20 21 22 23 24 
 25 26 27 28 
 12 
 7 8 9 11 13 15 19 20 22 24 26 27 
 5 
 8 18 21 23 26 
 17 
 1 4 5 7 8 9 11 13 16 18 19 20 
 22 24 26 27 28 
 2 
 10 11 
 9 
 1 3 6 11 13 14 18 19 23 
 2 
 22 26 
 13 
 1 2 6 7 8 9 11 15 19 20 21 24 
 27 
 26 
 1 2 3 4 5 6 7 8 9 10 11 12 
 14 15 16 17 18 19 20 21 22 23 25 26 
 27 28 
 12 
 1 6 11 12 13 14 16 19 20 25 27 28 
 22 
 1 2 3 4 5 8 10 12 13 14 15 16 
 17 18 19 20 23 24 25 26 27 28 
 6 
 1 6 18 22 23 25 
 22 
 2 3 4 5 6 7 9 10 11 12 15 16 
 17 18 20 21 22 23 25 26 27 28 
 10 
 2 8 10 12 15 17 18 21 22 28 
 5 
 5 9 11 15 22 
 20 
 3 5 6 9 11 12 13 14 15 16 17 19 
 20 22 23 24 25 26 27 28 
 18 
 1 2 3 4 5 6 7 9 10 12 13 14 
 15 16 18 21 26 27 
 12 
 1 4 7 11 13 18 19 21 23 24 27 28 
 14 
 1 2 3 4 6 9 10 13 14 15 18 23 
 24 28 
 2 
 19 27 
 7 
 1 7 12 16 17 19 26 
 20 
 1 2 3 6 8 9 10 11 12 13 15 16 
 17 18 19 20 23 24 25 28 
 23 
 2 3 4 5 6 7 10 11 12 13 14 16 
 17 18 19 20 21 22 23 24 25 27 28 
 7 
 8 10 11 12 20 24 28 
 26 
 1 2 3 4 5 6 7 8 9 10 11 12 
 13 14 15 16 17 18 19 20 21 22 23 24 
 26 27 
 10 
 1 6 9 11 13 14 22 25 26 28 
 20 
 2 3 4 6 7 9 10 11 12 14 16 17 
 18 20 21 23 25 26 27 28 
 3 
 4 7 18 
 14 
 2 3 4 5 10 15 16 17 18 20 24 25 
 26 27 
 20 
 1 2 3 5 6 8 9 10 11 12 13 14 
 15 19 20 22 23 26 27 28 
 5 
 3 8 17 24 28 
 28 
 1 2 3 4 5 6 7 8 9 10 11 12 
 13 14 15 16 17 18 19 20 21 22 23 24 
 25 26 27 28 
 11 
 1 3 9 12 15 16 18 19 22 27 28 
 15 
 3 4 6 9 10 11 12 13 15 18 19 21 
 22 23 28 
 5 
 2 7 12 19 24 
 9 
 9 10 11 15 20 21 23 27 28 
 27 
 1 2 3 4 5 6 7 8 9 10 11 13 
 14 15 16 17 18 19 20 21 22 23 24 25 
 26 27 28 
 26 
 1 2 3 4 5 6 7 8 10 11 12 13 
 14 16 17 18 19 20 21 22 23 24 25 26 
 27 28 
 3 
 5 10 26 
 4 
 2 15 16 17 
 3 
 8 10 17 
 8 
 2 5 6 13 14 18 22 23 
 3 
 4 9 11 
 8 
 4 7 9 10 12 17 18 22 
 16 
 4 6 8 9 10 11 12 14 16 17 18 19 
 20 21 22 23 
 11 
 2 3 7 8 11 12 13 14 17 24 25 
 24 
 1 2 3 4 5 6 7 9 10 11 12 13 
 14 15 17 18 19 20 22 23 24 26 27 28 
 21 
 1 2 3 4 6 7 9 11 12 13 14 15 
 16 18 19 20 21 22 23 27 28 
 23 
 1 2 4 5 6 7 8 9 10 11 12 13 
 14 16 18 19 20 21 23 25 26 27 28 
 22 
 1 2 3 4 6 7 8 9 10 11 12 14 
 15 16 17 18 19 20 21 22 25 26 
 6 
 7 15 17 19 23 25 
 17 
 1 5 7 10 11 12 14 15 16 18 20 21 
 22 23 24 25 26 
 14 
 1 2 3 4 6 7 9 10 11 12 13 25 
 26 27 
 7 
 1 11 16 19 21 24 26 
 13 
 4 8 9 10 11 12 13 17 18 20 21 22 
 26 
 16 
 1 3 4 5 9 11 12 13 14 15 16 19 
 20 23 27 28 
 21 
 2 4 5 6 9 10 11 12 13 14 15 17 
 18 19 20 21 22 23 26 27 28 
 5 
 3 8 11 20 22 
 2 
 19 26 
 3 
 2 20 21 
 23 
 1 2 3 4 6 7 8 9 10 11 12 13 
 14 16 18 19 20 21 22 23 25 26 27 
 21 
 1 2 3 5 6 7 8 11 12 13 14 15 
 16 17 18 20 22 23 24 25 27 
 16 
 1 3 7 8 10 11 12 13 14 16 17 18 
 20 24 25 28 
 25 
 2 3 5 6 7 8 10 11 12 13 14 15 
 16 17 18 19 20 21 22 23 24 25 26 27 
 28 
 28 
 1 2 3 4 5 6 7 8 9 10 11 12 
 13 14 15 16 17 18 19 20 21 22 23 24 
 25 26 27 28 
 24 
 1 2 3 4 5 6 7 8 9 10 11 12 
 13 14 15 16 18 19 20 21 22 24 25 26 
 15 
 1 3 5 6 11 13 14 15 16 18 19 20 
 22 26 28 
 16 
 1 2 5 6 7 10 11 12 13 14 16 20 
 22 24 26 27 
 